sat
(:added-eqs                       8892
 :arith-eq-adapter                432
 :arith-bound-propagations-lp     203
 :arith-branch                    2
 :arith-conflicts                 1254
 :arith-diseq                     729
 :arith-fixed-eqs                 948
 :arith-gcd-calls                 104
 :arith-gomory-cuts               2
 :arith-grobner-calls             101
 :arith-grobner-conflicts         86
 :arith-horner-calls              23
 :arith-horner-cross-nested-forms 12476
 :arith-lower                     2559
 :arith-make-feasible             3525
 :arith-max-columns               1797
 :arith-max-rows                  804
 :arith-nla-add-bounds            9
 :arith-nla-lemmas                471
 :arith-nla-propagate-bounds      661
 :arith-nla-propagate-eq          9714
 :arith-nra-calls                 39
 :arith-offset-eqs                1254
 :arith-patches                   104
 :arith-patches-success           98
 :arith-upper                     4126
 :binary-propagations             2056
 :cnf-encoding-aux-vars           28
 :conflicts                       194
 :decisions                       4220
 :del-clause                      917
 :elim-unconstrained              23
 :final-checks                    275
 :max-memory                      113.69
 :memory                          57.81
 :minimized-lits                  127
 :mk-bool-var                     3969
 :mk-clause                       1535
 :mk-clause-binary                8136
 :nlsat-conflicts                 3018
 :nlsat-decisions                 475
 :nlsat-propagations              284083
 :nlsat-restarts                  5
 :nlsat-stages                    207521
 :num-allocs                      4441493695.00
 :num-checks                      1
 :propagations                    4965
 :restarts                        1
 :rlimit-count                    4064996
 :sat-mk-clause-2ary              132847
 :sat-mk-clause-nary              197268
 :sat-mk-var                      94888
 :sls-arith-flips                 6558
 :sls-ddfw-flips                  5200.00
 :sls-ddfw-shifts                 10.00
 :sls-num-guided-search           8
 :sls-repair-down                 998
 :sls-repair-up                   1990
 :solve-eqs-elim-vars             147
 :solve-eqs-steps                 2446
 :time                            2.42
 :total-time                      2.42)
